sat
(:max-memory                   18.72
 :memory                       18.52
 :nlsat-arith-var              2
 :nlsat-atoms                  9
 :nlsat-bool-var               3
 :nlsat-clauses                5
 :nlsat-conflicts              2
 :nlsat-decisions              2
 :nlsat-irrational-assignments 1
 :nlsat-propagations           11
 :nlsat-stages                 5
 :num-allocs                   97427
 :rlimit-count                 11946
 :solve-eqs-elim-vars          1
 :solve-eqs-steps              4
 :time                         0.01
 :total-time                   0.03)
